; benchmark generated from python API
(set-info :status unknown)
(declare-fun x_days () (_ BitVec 32))
(declare-fun y_days () (_ BitVec 32))
(assert
 (bvsle (_ bv4294930771 32) x_days))
(assert
 (bvsge (_ bv36523 32) x_days))
(assert
 (bvsle (_ bv4294930771 32) y_days))
(assert
 (bvsge (_ bv36523 32) y_days))
(assert
 (bvsge x_days (_ bv8492 32)))
(assert
 (let ((?x3079 (bvadd x_days (_ bv730179 32))))
 (let ((?x2881 (bvsmod ?x3079 (_ bv146097 32))))
 (let ((?x2936 (bvsdiv ?x2881 (_ bv36524 32))))
 (let ((?x3198 (ite (bvsle (_ bv4 32) ?x2936) (_ bv3 32) ?x2936)))
 (let ((?x16231 (bvsub ?x2881 (bvmul ?x3198 (_ bv36524 32)))))
 (let ((?x4493 (bvsmod ?x16231 (_ bv1461 32))))
 (let ((?x3490 (bvsdiv ?x4493 (_ bv365 32))))
 (let ((?x1550 (ite (bvsle (_ bv4 32) ?x3490) (_ bv3 32) ?x3490)))
 (let ((?x2828 (bvadd (bvadd (bvmul (bvsdiv ?x3079 (_ bv146097 32)) (_ bv400 32)) (bvmul ?x3198 (_ bv100 32))) (bvmul (bvsdiv ?x16231 (_ bv1461 32)) (_ bv4 32)))))
 (let ((?x2648 (bvadd (bvadd ?x2828 ?x1550) (_ bv1 32))))
 (let (($x37387 (or (and (= (bvsmod ?x2648 (_ bv4 32)) (_ bv0 32)) (and (distinct (bvsmod ?x2648 (_ bv100 32)) (_ bv0 32)) true)) (= (bvsmod ?x2648 (_ bv400 32)) (_ bv0 32)))))
 (let ((?x3443 (bvsub ?x4493 (bvmul ?x1550 (_ bv365 32)))))
 (let ((?x3831 (ite $x37387 (_ bv31 32) (_ bv31 32))))
 (let (($x997 (bvsge ?x3443 ?x3831)))
 (let ((?x1765 (ite $x997 (bvadd (bvsub ?x3443 ?x3831) (_ bv1 32)) (bvadd (bvsub ?x3443 (ite $x37387 (_ bv0 32) (_ bv0 32))) (_ bv1 32)))))
 (let ((?x2913 (ite $x37387 (_ bv60 32) (_ bv59 32))))
 (let (($x2746 (bvsge ?x3443 ?x2913)))
 (let ((?x1715 (ite $x37387 (_ bv91 32) (_ bv90 32))))
 (let (($x3673 (bvsge ?x3443 ?x1715)))
 (let ((?x842 (ite $x3673 (bvadd (bvsub ?x3443 ?x1715) (_ bv1 32)) (ite $x2746 (bvadd (bvsub ?x3443 ?x2913) (_ bv1 32)) ?x1765))))
 (let ((?x6010 (ite $x37387 (_ bv121 32) (_ bv120 32))))
 (let (($x3981 (bvsge ?x3443 ?x6010)))
 (let ((?x2968 (ite $x37387 (_ bv152 32) (_ bv151 32))))
 (let (($x1264 (bvsge ?x3443 ?x2968)))
 (let ((?x1523 (ite $x1264 (bvadd (bvsub ?x3443 ?x2968) (_ bv1 32)) (ite $x3981 (bvadd (bvsub ?x3443 ?x6010) (_ bv1 32)) ?x842))))
 (let ((?x1817 (ite $x37387 (_ bv182 32) (_ bv181 32))))
 (let (($x1519 (bvsge ?x3443 ?x1817)))
 (let ((?x2083 (ite $x37387 (_ bv213 32) (_ bv212 32))))
 (let (($x424 (bvsge ?x3443 ?x2083)))
 (let ((?x38516 (ite $x424 (bvadd (bvsub ?x3443 ?x2083) (_ bv1 32)) (ite $x1519 (bvadd (bvsub ?x3443 ?x1817) (_ bv1 32)) ?x1523))))
 (let ((?x4107 (ite $x37387 (_ bv244 32) (_ bv243 32))))
 (let (($x2161 (bvsge ?x3443 ?x4107)))
 (let ((?x4361 (ite $x37387 (_ bv274 32) (_ bv273 32))))
 (let (($x1617 (bvsge ?x3443 ?x4361)))
 (let ((?x2204 (ite $x1617 (bvadd (bvsub ?x3443 ?x4361) (_ bv1 32)) (ite $x2161 (bvadd (bvsub ?x3443 ?x4107) (_ bv1 32)) ?x38516))))
 (let ((?x650 (ite $x37387 (_ bv305 32) (_ bv304 32))))
 (let (($x695 (bvsge ?x3443 ?x650)))
 (let ((?x3189 (ite $x37387 (_ bv335 32) (_ bv334 32))))
 (let (($x4432 (bvsge ?x3443 ?x3189)))
 (let ((?x1262 (ite $x4432 (bvadd (bvsub ?x3443 ?x3189) (_ bv1 32)) (ite $x695 (bvadd (bvsub ?x3443 ?x650) (_ bv1 32)) ?x2204))))
 (let ((?x4375 (ite $x1264 (_ bv6 32) (ite $x3981 (_ bv5 32) (ite $x3673 (_ bv4 32) (ite $x2746 (_ bv3 32) (ite $x997 (_ bv2 32) (_ bv1 32))))))))
 (let ((?x50662 (ite $x695 (_ bv11 32) (ite $x1617 (_ bv10 32) (ite $x2161 (_ bv9 32) (ite $x424 (_ bv8 32) (ite $x1519 (_ bv7 32) ?x4375)))))))
 (let ((?x2904 (bvadd (ite $x4432 (_ bv12 32) ?x50662) (bvadd (bvmul (_ bv0 32) (_ bv12 32)) (_ bv1 32)))))
 (let ((?x2137 (bvsub (ite (bvuge ?x2904 (_ bv2147483648 32)) (bvsub ?x2904 (_ bv0 32)) ?x2904) (_ bv1 32))))
 (let ((?x3275 (bvsmod ?x2137 (_ bv12 32))))
 (let ((?x41092 (bvadd ?x3275 (_ bv1 32))))
 (let ((?x2932 (ite (or (= ?x41092 (_ bv4 32)) (= ?x41092 (_ bv6 32)) (= ?x41092 (_ bv9 32)) (= ?x41092 (_ bv11 32))) (_ bv30 32) (_ bv31 32))))
 (let ((?x1166 (bvsdiv ?x2137 (_ bv12 32))))
 (let ((?x703 (ite (and (bvuge ?x2137 (_ bv2147483648 32)) (and (distinct (_ bv0 32) ?x3275) true)) (bvsub ?x1166 (_ bv1 32)) ?x1166)))
 (let ((?x2863 (bvadd ?x2648 (bvadd (_ bv0 32) ?x703))))
 (let (($x2575 (or (and (= (bvsmod ?x2863 (_ bv4 32)) (_ bv0 32)) (and (distinct (bvsmod ?x2863 (_ bv100 32)) (_ bv0 32)) true)) (= (bvsmod ?x2863 (_ bv400 32)) (_ bv0 32)))))
 (let ((?x598 (ite (= ?x41092 (_ bv2 32)) (ite $x2575 (_ bv29 32) (_ bv28 32)) ?x2932)))
 (let ((?x1508 (ite (bvsgt (_ bv1 32) ?x1262) (_ bv1 32) (ite (bvsgt ?x1262 ?x598) ?x598 ?x1262))))
 (let ((?x4492 (ite (bvsgt (_ bv1 32) ?x1508) (_ bv1 32) (ite (bvsgt ?x1508 ?x598) ?x598 ?x1508))))
 (let ((?x1657 (ite (= (_ bv2 32) ?x41092) (ite $x2575 (_ bv31 32) (_ bv31 32)) (ite (= (_ bv1 32) ?x41092) (ite $x2575 (_ bv0 32) (_ bv0 32)) (_ bv0 32)))))
 (let ((?x1561 (ite (= (_ bv4 32) ?x41092) (ite $x2575 (_ bv91 32) (_ bv90 32)) (ite (= (_ bv3 32) ?x41092) (ite $x2575 (_ bv60 32) (_ bv59 32)) ?x1657))))
 (let ((?x2944 (ite (= (_ bv6 32) ?x41092) (ite $x2575 (_ bv152 32) (_ bv151 32)) (ite (= (_ bv5 32) ?x41092) (ite $x2575 (_ bv121 32) (_ bv120 32)) ?x1561))))
 (let ((?x1411 (ite (= (_ bv8 32) ?x41092) (ite $x2575 (_ bv213 32) (_ bv212 32)) (ite (= (_ bv7 32) ?x41092) (ite $x2575 (_ bv182 32) (_ bv181 32)) ?x2944))))
 (let ((?x661 (ite (= (_ bv10 32) ?x41092) (ite $x2575 (_ bv274 32) (_ bv273 32)) (ite (= (_ bv9 32) ?x41092) (ite $x2575 (_ bv244 32) (_ bv243 32)) ?x1411))))
 (let ((?x1682 (ite (= (_ bv12 32) ?x41092) (ite $x2575 (_ bv335 32) (_ bv334 32)) (ite (= (_ bv11 32) ?x41092) (ite $x2575 (_ bv305 32) (_ bv304 32)) ?x661))))
 (let ((?x3127 (bvadd (bvmul (_ bv365 32) (bvsub ?x2863 (_ bv1 32))) (bvsdiv (bvsub ?x2863 (_ bv1 32)) (_ bv4 32)))))
 (let ((?x2239 (bvadd (bvsub ?x3127 (bvsdiv (bvsub ?x2863 (_ bv1 32)) (_ bv100 32))) (bvsdiv (bvsub ?x2863 (_ bv1 32)) (_ bv400 32)))))
 (let ((?x2803 (bvadd (bvadd (bvsub (bvadd (bvadd ?x2239 ?x1682) (bvsub ?x4492 (_ bv1 32))) (_ bv730179 32)) (_ bv0 32)) (_ bv730179 32))))
 (let ((?x1160 (bvsmod ?x2803 (_ bv146097 32))))
 (let ((?x41263 (bvsdiv ?x1160 (_ bv36524 32))))
 (let ((?x2028 (ite (bvsle (_ bv4 32) ?x41263) (_ bv3 32) ?x41263)))
 (let ((?x2843 (bvsub ?x1160 (bvmul ?x2028 (_ bv36524 32)))))
 (let ((?x6825 (bvsmod ?x2843 (_ bv1461 32))))
 (let ((?x40789 (bvsdiv ?x6825 (_ bv365 32))))
 (let ((?x1697 (ite (bvsle (_ bv4 32) ?x40789) (_ bv3 32) ?x40789)))
 (let ((?x40541 (bvadd (bvadd (bvmul (bvsdiv ?x2803 (_ bv146097 32)) (_ bv400 32)) (bvmul ?x2028 (_ bv100 32))) (bvmul (bvsdiv ?x2843 (_ bv1461 32)) (_ bv4 32)))))
 (let ((?x41498 (bvadd (bvadd ?x40541 ?x1697) (_ bv1 32))))
 (let (($x2569 (or (and (= (bvsmod ?x41498 (_ bv4 32)) (_ bv0 32)) (and (distinct (bvsmod ?x41498 (_ bv100 32)) (_ bv0 32)) true)) (= (bvsmod ?x41498 (_ bv400 32)) (_ bv0 32)))))
 (let ((?x1651 (bvsub ?x6825 (bvmul ?x1697 (_ bv365 32)))))
 (let ((?x2271 (ite $x2569 (_ bv31 32) (_ bv31 32))))
 (let (($x847 (bvsge ?x1651 ?x2271)))
 (let ((?x40280 (ite $x847 (bvadd (bvsub ?x1651 ?x2271) (_ bv1 32)) (bvadd (bvsub ?x1651 (ite $x2569 (_ bv0 32) (_ bv0 32))) (_ bv1 32)))))
 (let ((?x1248 (ite $x2569 (_ bv60 32) (_ bv59 32))))
 (let (($x473 (bvsge ?x1651 ?x1248)))
 (let ((?x2333 (ite $x2569 (_ bv91 32) (_ bv90 32))))
 (let (($x2075 (bvsge ?x1651 ?x2333)))
 (let ((?x1973 (ite $x2075 (bvadd (bvsub ?x1651 ?x2333) (_ bv1 32)) (ite $x473 (bvadd (bvsub ?x1651 ?x1248) (_ bv1 32)) ?x40280))))
 (let ((?x420 (ite $x2569 (_ bv121 32) (_ bv120 32))))
 (let (($x4056 (bvsge ?x1651 ?x420)))
 (let ((?x1388 (ite $x2569 (_ bv152 32) (_ bv151 32))))
 (let (($x4545 (bvsge ?x1651 ?x1388)))
 (let ((?x2868 (ite $x4545 (bvadd (bvsub ?x1651 ?x1388) (_ bv1 32)) (ite $x4056 (bvadd (bvsub ?x1651 ?x420) (_ bv1 32)) ?x1973))))
 (let ((?x1108 (ite $x2569 (_ bv182 32) (_ bv181 32))))
 (let (($x3141 (bvsge ?x1651 ?x1108)))
 (let ((?x2924 (ite $x2569 (_ bv213 32) (_ bv212 32))))
 (let (($x1047 (bvsge ?x1651 ?x2924)))
 (let ((?x1913 (ite $x1047 (bvadd (bvsub ?x1651 ?x2924) (_ bv1 32)) (ite $x3141 (bvadd (bvsub ?x1651 ?x1108) (_ bv1 32)) ?x2868))))
 (let ((?x2561 (ite $x2569 (_ bv244 32) (_ bv243 32))))
 (let (($x2527 (bvsge ?x1651 ?x2561)))
 (let ((?x2670 (ite $x2569 (_ bv274 32) (_ bv273 32))))
 (let (($x1693 (bvsge ?x1651 ?x2670)))
 (let ((?x40571 (ite $x1693 (bvadd (bvsub ?x1651 ?x2670) (_ bv1 32)) (ite $x2527 (bvadd (bvsub ?x1651 ?x2561) (_ bv1 32)) ?x1913))))
 (let ((?x2109 (ite $x2569 (_ bv305 32) (_ bv304 32))))
 (let (($x1938 (bvsge ?x1651 ?x2109)))
 (let ((?x2623 (ite $x2569 (_ bv335 32) (_ bv334 32))))
 (let (($x40719 (bvsge ?x1651 ?x2623)))
 (let ((?x2157 (ite $x40719 (bvadd (bvsub ?x1651 ?x2623) (_ bv1 32)) (ite $x1938 (bvadd (bvsub ?x1651 ?x2109) (_ bv1 32)) ?x40571))))
 (let (($x2494 (= (_ bv0 32) (_ bv0 32))))
 (let (($x40861 (and (= (bvsmod (ite $x2494 ?x2863 ?x41498) (_ bv4 32)) (_ bv0 32)) (and (distinct (bvsmod (ite $x2494 ?x2863 ?x41498) (_ bv100 32)) (_ bv0 32)) true))))
 (let (($x4260 (or $x40861 (= (bvsmod (ite $x2494 ?x2863 ?x41498) (_ bv400 32)) (_ bv0 32)))))
 (let ((?x857 (ite $x4545 (_ bv6 32) (ite $x4056 (_ bv5 32) (ite $x2075 (_ bv4 32) (ite $x473 (_ bv3 32) (ite $x847 (_ bv2 32) (_ bv1 32))))))))
 (let ((?x1526 (ite $x1938 (_ bv11 32) (ite $x1693 (_ bv10 32) (ite $x2527 (_ bv9 32) (ite $x1047 (_ bv8 32) (ite $x3141 (_ bv7 32) ?x857)))))))
 (let ((?x18516 (ite $x2494 ?x41092 (ite $x40719 (_ bv12 32) ?x1526))))
 (let ((?x3712 (ite (= (_ bv2 32) ?x18516) (ite $x4260 (_ bv31 32) (_ bv31 32)) (ite (= (_ bv1 32) ?x18516) (ite $x4260 (_ bv0 32) (_ bv0 32)) (_ bv0 32)))))
 (let ((?x37591 (ite (= (_ bv4 32) ?x18516) (ite $x4260 (_ bv91 32) (_ bv90 32)) (ite (= (_ bv3 32) ?x18516) (ite $x4260 (_ bv60 32) (_ bv59 32)) ?x3712))))
 (let ((?x1233 (ite (= (_ bv6 32) ?x18516) (ite $x4260 (_ bv152 32) (_ bv151 32)) (ite (= (_ bv5 32) ?x18516) (ite $x4260 (_ bv121 32) (_ bv120 32)) ?x37591))))
 (let ((?x2262 (ite (= (_ bv8 32) ?x18516) (ite $x4260 (_ bv213 32) (_ bv212 32)) (ite (= (_ bv7 32) ?x18516) (ite $x4260 (_ bv182 32) (_ bv181 32)) ?x1233))))
 (let ((?x4205 (ite (= (_ bv10 32) ?x18516) (ite $x4260 (_ bv274 32) (_ bv273 32)) (ite (= (_ bv9 32) ?x18516) (ite $x4260 (_ bv244 32) (_ bv243 32)) ?x2262))))
 (let ((?x1191 (ite (= (_ bv12 32) ?x18516) (ite $x4260 (_ bv335 32) (_ bv334 32)) (ite (= (_ bv11 32) ?x18516) (ite $x4260 (_ bv305 32) (_ bv304 32)) ?x4205))))
 (let ((?x35074 (bvadd (bvmul (_ bv365 32) (bvsub (ite $x2494 ?x2863 ?x41498) (_ bv1 32))) (bvsdiv (bvsub (ite $x2494 ?x2863 ?x41498) (_ bv1 32)) (_ bv4 32)))))
 (let ((?x3133 (bvadd (bvsub ?x35074 (bvsdiv (bvsub (ite $x2494 ?x2863 ?x41498) (_ bv1 32)) (_ bv100 32))) (bvsdiv (bvsub (ite $x2494 ?x2863 ?x41498) (_ bv1 32)) (_ bv400 32)))))
 (let ((?x18962 (bvsub (bvadd (bvadd ?x3133 ?x1191) (bvsub (ite $x2494 ?x4492 ?x2157) (_ bv1 32))) (_ bv730179 32))))
 (= (bvadd ?x18962 (_ bv15 32)) y_days)))))))))))))))))))))))))))))))))))))))))))))))))))))))))))))))))))))))))))))))))))))))))))))))))))))))))))))))))))))))
(assert
 (bvsge y_days (_ bv8492 32)))
(check-sat)
